c Output_time 26.03.2020 18:15:15_+0100 1585242915759314660
c ** Program information **
c program_name                          "QBRG_debug"
c version                               "0.3.20"
c date                                  "25.3.2020"
c gid_id                                "673970833836058123f633335630c185360d632e"
c author                                "Oliver Kullmann"
c url                                   "https://github.com/OKullmann/oklibrary/blob/master/Satisfiability/Transformers/Generators/Random/QBRG.cpp"
c ** Machine information **
c machine_name                          "chyna-Lenovo-G50-70"
c bogomips                              3791.08
c ** Compilation information **
c compiler_version                      "g++ 7.5.0"
c compilation_date                      "Mar_26_2020 11:16:30"
c compilation_options                   "--std=c++17 -pedantic -fmax-errors=5 -Wall -Wextra -g -D_GLIBCXX_DEBUG"
c NDEBUG                                0
c OPTIMIZE                              0
c ** Parameters **
c command-line                          "./QBRG_debug" "a40 e40 a40 40" "331*1,1|2-2,1|3-3,1|4-4,1" "" "1,t" ""
c output                                "QuBlRaGe_160_331_1585242915759158602.qdimacs"
c options                               "filtered,renamed"
c num_quantifier_blocks                 4
c  quantifier_blocks                    1:a1-40 2:e41-80 3:a81-120 4:e121-160
c num_clause-blocks                     1
c  clause-blocks                        331 * {1-40,1,1/2} | {41-80,1,1/2} | {81-120,1,1/2} | {121-160,1,1/2}
c num_e-seeds                           37+2=39
c  e-seeds                              1 0 1 0 5 160 2 40 0 40 1 40 0 40 1 331 4 1 1 1 1 2 2 2 1 1 2 3 3 1 1 2 4 4 1 1 2 1 1585242915759157899
p cnf 160 331
a 1 2 3 4 5 6 7 8 9 10 11 12 13 14 15 16 17 18 19 20 21 22 23 24 25 26 27 28 29 30 31 32 33 34 35 36 37 38 39 40 0
e 41 42 43 44 45 46 47 48 49 50 51 52 53 54 55 56 57 58 59 60 61 62 63 64 65 66 67 68 69 70 71 72 73 74 75 76 77 78 79 80 0
a 81 82 83 84 85 86 87 88 89 90 91 92 93 94 95 96 97 98 99 100 101 102 103 104 105 106 107 108 109 110 111 112 113 114 115 116 117 118 119 120 0
e 121 122 123 124 125 126 127 128 129 130 131 132 133 134 135 136 137 138 139 140 141 142 143 144 145 146 147 148 149 150 151 152 153 154 155 156 157 158 159 160 0
-15 42 109 -121 0
16 66 -115 -121 0
-4 -53 -119 -121 0
40 65 120 -121 0
19 -75 101 121 0
-11 54 -102 121 0
-11 -77 -110 121 0
-14 58 -82 -122 0
22 60 98 -122 0
-5 -69 107 -122 0
8 67 109 -122 0
12 79 110 -122 0
33 -45 -114 -122 0
-13 56 83 122 0
22 64 -89 122 0
-7 68 89 122 0
34 67 110 122 0
4 -70 117 122 0
40 -49 87 -123 0
-13 -65 114 -123 0
-36 -48 86 123 0
-9 -42 -94 123 0
-15 64 -100 123 0
-40 -67 104 123 0
31 73 110 123 0
-27 44 116 123 0
-10 59 81 -124 0
10 -67 89 -124 0
24 -56 -90 -124 0
-34 -42 93 -124 0
5 54 -115 -124 0
39 44 -120 -124 0
-26 67 104 124 0
3 50 -110 124 0
-22 -76 82 -125 0
-27 -64 -94 -125 0
-36 75 106 -125 0
17 -79 109 -125 0
-37 -47 -117 -125 0
11 -75 -82 125 0
-5 46 -99 125 0
15 64 93 -126 0
-31 -72 -98 -126 0
10 69 -105 -126 0
-23 70 118 -126 0
-15 -55 -83 126 0
27 49 84 126 0
-11 79 -86 126 0
-21 47 107 126 0
-12 -52 -113 126 0
-1 -59 -117 126 0
-36 -80 117 126 0
21 75 -118 126 0
22 -67 120 126 0
-2 53 86 -127 0
-39 43 -89 -127 0
-17 -76 104 -127 0
32 55 -87 127 0
29 -68 -90 127 0
-6 69 120 127 0
-24 70 90 -128 0
-6 -41 -92 -128 0
-32 -67 105 -128 0
-30 -56 106 -128 0
24 -78 106 -128 0
-24 55 -107 -128 0
2 -43 -117 -128 0
8 60 82 128 0
25 -72 91 128 0
-8 -74 99 128 0
-20 47 -92 -129 0
39 60 99 -129 0
-32 44 -100 -129 0
11 62 -100 -129 0
-11 -62 104 -129 0
-11 58 85 129 0
-22 -74 88 129 0
37 71 -90 129 0
15 71 -104 129 0
-4 -59 -119 129 0
-31 -69 81 -130 0
33 55 83 -130 0
-5 50 90 -130 0
18 -62 -115 -130 0
-12 42 83 130 0
-25 52 88 130 0
2 -76 -95 130 0
-33 65 -100 130 0
-16 -73 -96 -131 0
34 79 106 -131 0
9 63 114 -131 0
-7 68 -103 131 0
29 55 107 131 0
-3 66 82 -132 0
-19 -50 -100 -132 0
-5 -56 84 132 0
31 51 92 132 0
-20 66 120 132 0
-2 70 -83 -133 0
40 48 -94 -133 0
1 -65 97 -133 0
-25 -52 106 -133 0
37 71 -110 -133 0
3 50 81 133 0
-14 -75 -83 133 0
12 -43 103 133 0
-4 -68 114 133 0
-8 -65 92 -134 0
-13 -76 110 -134 0
29 -78 114 -134 0
-8 -58 119 -134 0
28 -55 120 -134 0
22 49 97 134 0
35 73 92 -135 0
-27 -73 -103 -135 0
-37 -78 96 135 0
-28 -59 103 135 0
34 -49 116 135 0
31 53 117 135 0
-13 -51 -119 135 0
-38 -53 -101 -136 0
-14 53 -110 -136 0
14 74 118 -136 0
-26 -62 120 -136 0
38 61 102 136 0
30 74 108 -137 0
17 80 109 -137 0
-30 -42 -111 -137 0
-36 67 111 -137 0
24 -44 -91 137 0
-38 69 -91 137 0
-21 70 91 137 0
-3 -50 -109 137 0
-6 -75 118 137 0
11 -57 84 -138 0
-25 -75 -92 -138 0
15 -69 -111 -138 0
34 63 -118 -138 0
-2 54 -82 138 0
36 -58 83 138 0
23 43 91 138 0
-26 -73 -101 138 0
26 75 113 138 0
7 -49 -86 -139 0
-29 70 -99 -139 0
-30 41 100 -139 0
-30 -45 -102 -139 0
8 -68 109 -139 0
35 -74 117 -139 0
-7 58 87 139 0
-17 -45 94 139 0
1 68 94 139 0
-4 72 -104 139 0
-15 -48 104 139 0
-7 42 116 139 0
35 75 -81 -140 0
29 -72 96 -140 0
10 76 97 -140 0
25 -43 -101 -140 0
-22 76 85 140 0
-21 43 101 140 0
35 53 -103 140 0
28 72 104 140 0
-39 -61 -106 140 0
-35 65 -108 140 0
-22 -76 -108 140 0
-2 -54 -83 -141 0
12 67 -87 -141 0
-26 68 114 -141 0
-20 57 118 -141 0
5 -49 120 -141 0
15 -78 -97 141 0
7 76 -91 -142 0
-8 -76 -99 -142 0
18 -43 102 -142 0
-11 -80 -110 -142 0
-1 80 114 -142 0
23 -42 116 -142 0
-14 -49 82 142 0
24 41 -87 142 0
-9 62 88 142 0
28 -54 -90 142 0
32 45 111 142 0
3 55 -114 142 0
2 -74 -89 -143 0
-38 63 -94 -143 0
-28 61 -105 -143 0
22 77 110 -143 0
-23 45 -118 -143 0
31 67 -118 -143 0
2 62 -120 -143 0
27 71 -98 143 0
31 -50 -107 143 0
27 -70 110 143 0
-27 54 -82 -144 0
24 48 91 -144 0
-38 45 -93 -144 0
-16 61 -94 -144 0
-38 -77 -97 -144 0
36 -52 -107 -144 0
-23 80 109 -144 0
39 52 -111 -144 0
13 -72 112 -144 0
-5 54 115 -144 0
-15 71 116 -144 0
-13 78 87 144 0
22 -60 -91 144 0
-25 -72 -109 144 0
19 -65 -94 -145 0
16 58 101 -145 0
38 -67 103 -145 0
27 66 -117 -145 0
39 -41 -82 145 0
13 -76 -102 145 0
-29 -44 -114 145 0
27 -48 114 145 0
10 51 -85 -146 0
-15 71 -85 -146 0
-6 69 -91 -146 0
-1 76 -97 -146 0
34 -56 97 -146 0
25 53 116 -146 0
-39 -43 105 146 0
1 -66 -107 146 0
26 45 117 146 0
-34 56 -81 -147 0
25 54 -92 -147 0
-22 43 94 -147 0
-36 79 94 -147 0
-35 77 -109 -147 0
11 76 -87 147 0
10 79 112 147 0
12 -46 114 147 0
-19 -67 82 -148 0
2 68 85 -148 0
36 -67 -88 -148 0
-19 63 -97 -148 0
-23 -63 98 -148 0
-18 48 94 148 0
-31 53 -100 148 0
-27 80 100 148 0
4 56 102 148 0
7 -61 102 -149 0
12 45 -104 -149 0
28 55 106 -149 0
-18 80 -114 -149 0
-5 79 88 149 0
-20 41 -97 149 0
24 45 -105 149 0
38 55 87 150 0
-18 54 94 150 0
18 -58 102 150 0
40 49 103 150 0
-25 75 -86 -151 0
-7 -60 -88 -151 0
-30 -77 -88 -151 0
-25 -67 93 -151 0
37 -48 -111 -151 0
-22 79 83 151 0
22 -80 87 151 0
9 73 -95 151 0
-8 61 109 151 0
-3 56 -112 151 0
-28 76 -91 -152 0
-25 69 94 -152 0
31 41 97 -152 0
-24 45 -110 -152 0
27 -71 -113 -152 0
10 67 -82 152 0
37 -63 86 152 0
38 -46 94 152 0
-30 -66 -117 152 0
34 -72 -86 -153 0
-1 58 -104 -153 0
-22 -70 118 -153 0
20 59 -83 153 0
36 -77 -86 153 0
-35 45 101 153 0
29 43 109 153 0
-19 -58 -115 153 0
-30 62 98 -154 0
-38 -71 -116 -154 0
19 68 83 154 0
-39 -52 85 154 0
-25 47 90 154 0
-36 49 -91 154 0
-11 42 101 154 0
1 64 -102 154 0
25 63 -110 154 0
-16 -48 89 -155 0
36 -70 -103 -155 0
23 -42 105 -155 0
32 -59 109 -155 0
29 -66 -93 155 0
25 -72 -102 155 0
-8 65 -105 155 0
15 72 -106 155 0
5 74 -106 155 0
-38 -64 -109 155 0
-2 -42 -118 155 0
1 61 90 -156 0
-4 -73 -100 -156 0
-8 -54 106 -156 0
34 -71 106 -156 0
14 54 90 156 0
1 -65 112 156 0
4 41 86 -157 0
-27 -58 92 -157 0
-31 -69 94 -157 0
36 -53 -103 -157 0
-17 60 109 -157 0
17 77 -106 157 0
7 62 -108 157 0
19 -58 -82 -158 0
30 -77 86 -158 0
23 -61 -96 -158 0
-19 -67 116 -158 0
38 -72 89 158 0
-21 67 -88 -159 0
-7 -55 108 -159 0
-13 43 91 159 0
40 -58 -104 159 0
11 44 -113 159 0
16 -72 -119 159 0
36 -68 82 -160 0
-4 -63 -89 -160 0
35 54 -110 -160 0
33 -42 118 -160 0
23 41 90 160 0
-25 -58 93 160 0
12 44 -116 160 0
